(set-option :produce-models true)
(set-logic all)
(declare-fun s0 () (array int bool))
(declare-fun s1 () (array int bool))
(define-fun s2 () (array int bool) (store ((as const (array int bool)) false) 1 true))
(assert (= s0 s2))
(assert (= s1 s2))
(define-fun b () bool (subset s0 (complement s1)))
(check-sat)